output_0.cnf
c Result of efficient AIG-to-CNF conversion using package CNF
p cnf 716 2100
2 -3 -8 -13 -453 0
-2 453 0
-2 3 0
-2 13 0
-2 8 0
3 -4 -5 -6 -7 0
-3 7 0
-3 4 0
-3 6 0
-3 5 0
4 -626 627 -691 692 0
4 626 -627 691 -692 0
4 626 627 691 692 0
4 -626 -627 -691 -692 0
-4 -626 691 0
-4 626 -691 0
-4 627 -692 0
-4 -627 692 0
5 -628 629 -693 694 0
5 628 -629 693 -694 0
5 628 629 693 694 0
5 -628 -629 -693 -694 0
-5 -628 693 0
-5 628 -693 0
-5 629 -694 0
-5 -629 694 0
6 -630 631 -695 696 0
6 630 -631 695 -696 0
6 630 631 695 696 0
6 -630 -631 -695 -696 0
-6 -630 695 0
-6 630 -695 0
-6 631 -696 0
-6 -631 696 0
7 -632 633 -697 698 0
7 632 -633 697 -698 0
7 632 633 697 698 0
7 -632 -633 -697 -698 0
-7 -632 697 0
-7 632 -697 0
-7 633 -698 0
-7 -633 698 0
8 -9 -10 -11 -12 0
-8 12 0
-8 9 0
-8 11 0
-8 10 0
9 -634 635 -699 700 0
9 634 -635 699 -700 0
9 634 635 699 700 0
9 -634 -635 -699 -700 0
-9 -634 699 0
-9 634 -699 0
-9 635 -700 0
-9 -635 700 0
10 -636 637 -701 702 0
10 636 -637 701 -702 0
10 636 637 701 702 0
10 -636 -637 -701 -702 0
-10 -636 701 0
-10 636 -701 0
-10 637 -702 0
-10 -637 702 0
11 -639 640 -704 705 0
11 639 -640 704 -705 0
11 639 640 704 705 0
11 -639 -640 -704 -705 0
-11 -639 704 0
-11 639 -704 0
-11 640 -705 0
-11 -640 705 0
12 -641 642 -706 707 0
12 641 -642 706 -707 0
12 641 642 706 707 0
12 -641 -642 -706 -707 0
-12 -641 706 0
-12 641 -706 0
-12 642 -707 0
-12 -642 707 0
13 -14 -444 -447 -450 0
-13 450 0
-13 14 0
-13 447 0
-13 444 0
14 -15 -439 -440 -441 0
-14 441 0
-14 15 0
-14 440 0
-14 439 0
15 -16 -226 -437 -438 0
-15 438 0
-15 16 0
-15 437 0
-15 226 0
16 543 -17 -221 -223 0
16 -543 17 -221 -223 0
-16 223 0
-16 543 17 0
-16 221 0
-16 -543 -17 0
17 18 -215 0
17 -18 215 0
-17 -18 -215 0
-17 18 215 0
18 19 -209 0
18 -19 209 0
-18 -19 -209 0
-18 19 209 0
19 20 -203 0
19 -20 203 0
-19 -20 -203 0
-19 20 203 0
20 21 -197 0
20 -21 197 0
-20 -21 -197 0
-20 21 197 0
21 22 -191 0
21 -22 191 0
-21 -22 -191 0
-21 22 191 0
22 23 -185 0
22 -23 185 0
-22 -23 -185 0
-22 23 185 0
23 24 -179 0
23 -24 179 0
-23 -24 -179 0
-23 24 179 0
24 25 -173 0
24 -25 173 0
-24 -25 -173 0
-24 25 173 0
25 26 -167 0
25 -26 167 0
-25 -26 -167 0
-25 26 167 0
26 27 -161 0
26 -27 161 0
-26 -27 -161 0
-26 27 161 0
27 28 -155 0
27 -28 155 0
-27 -28 -155 0
-27 28 155 0
28 29 -149 0
28 -29 149 0
-28 -29 -149 0
-28 29 149 0
29 30 -143 0
29 -30 143 0
-29 -30 -143 0
-29 30 143 0
30 31 -137 0
30 -31 137 0
-30 -31 -137 0
-30 31 137 0
31 32 -131 0
31 -32 131 0
-31 -32 -131 0
-31 32 131 0
32 33 -125 0
32 -33 125 0
-32 -33 -125 0
-32 33 125 0
33 34 -119 0
33 -34 119 0
-33 -34 -119 0
-33 34 119 0
34 35 -113 0
34 -35 113 0
-34 -35 -113 0
-34 35 113 0
35 36 -107 0
35 -36 107 0
-35 -36 -107 0
-35 36 107 0
36 37 -101 0
36 -37 101 0
-36 -37 -101 0
-36 37 101 0
37 38 -95 0
37 -38 95 0
-37 -38 -95 0
-37 38 95 0
38 39 -89 0
38 -39 89 0
-38 -39 -89 0
-38 39 89 0
39 40 -83 0
39 -40 83 0
-39 -40 -83 0
-39 40 83 0
40 41 -77 0
40 -41 77 0
-40 -41 -77 0
-40 41 77 0
41 42 -71 0
41 -42 71 0
-41 -42 -71 0
-41 42 71 0
42 43 -65 0
42 -43 65 0
-42 -43 -65 0
-42 43 65 0
43 44 -59 0
43 -44 59 0
-43 -44 -59 0
-43 44 59 0
44 45 0
-44 -45 0
45 -46 0
-45 46 0
46 47 -50 0
-46 -47 0
-46 50 0
47 48 0
-47 -48 0
48 -49 0
-48 49 0
49 -556 -557 -558 -559 0
-49 559 0
-49 556 0
-49 558 0
-49 557 0
50 51 -57 0
-50 -51 0
-50 57 0
51 52 -55 0
51 -52 55 0
-51 -52 -55 0
-51 52 55 0
52 556 53 0
52 557 53 0
-52 -53 0
-52 -556 -557 0
53 -558 54 0
-53 558 0
-53 -54 0
54 -556 -557 0
54 556 557 0
-54 556 -557 0
-54 -556 557 0
55 -559 56 0
-55 559 0
-55 -56 0
56 558 -54 0
56 -558 54 0
-56 -558 -54 0
-56 558 54 0
57 -560 58 0
-57 560 0
-57 -58 0
58 559 -56 0
58 -559 56 0
-58 -559 -56 0
-58 559 56 0
59 60 -61 0
-59 -60 0
-59 61 0
60 47 -50 0
60 -47 50 0
-60 -47 -50 0
-60 47 50 0
61 62 -63 0
-61 -62 0
-61 63 0
62 51 -57 0
62 -51 57 0
-62 -51 -57 0
-62 51 57 0
63 -561 64 0
-63 561 0
-63 -64 0
64 560 -58 0
64 -560 58 0
-64 -560 -58 0
-64 560 58 0
65 66 -67 0
-65 -66 0
-65 67 0
66 60 -61 0
66 -60 61 0
-66 -60 -61 0
-66 60 61 0
67 68 -69 0
-67 -68 0
-67 69 0
68 62 -63 0
68 -62 63 0
-68 -62 -63 0
-68 62 63 0
69 -562 70 0
-69 562 0
-69 -70 0
70 561 -64 0
70 -561 64 0
-70 -561 -64 0
-70 561 64 0
71 72 -73 0
-71 -72 0
-71 73 0
72 66 -67 0
72 -66 67 0
-72 -66 -67 0
-72 66 67 0
73 74 -75 0
-73 -74 0
-73 75 0
74 68 -69 0
74 -68 69 0
-74 -68 -69 0
-74 68 69 0
75 -563 76 0
-75 563 0
-75 -76 0
76 562 -70 0
76 -562 70 0
-76 -562 -70 0
-76 562 70 0
77 78 -79 0
-77 -78 0
-77 79 0
78 72 -73 0
78 -72 73 0
-78 -72 -73 0
-78 72 73 0
79 80 -81 0
-79 -80 0
-79 81 0
80 74 -75 0
80 -74 75 0
-80 -74 -75 0
-80 74 75 0
81 -564 82 0
-81 564 0
-81 -82 0
82 563 -76 0
82 -563 76 0
-82 -563 -76 0
-82 563 76 0
83 84 -85 0
-83 -84 0
-83 85 0
84 78 -79 0
84 -78 79 0
-84 -78 -79 0
-84 78 79 0
85 86 -87 0
-85 -86 0
-85 87 0
86 80 -81 0
86 -80 81 0
-86 -80 -81 0
-86 80 81 0
87 -565 88 0
-87 565 0
-87 -88 0
88 564 -82 0
88 -564 82 0
-88 -564 -82 0
-88 564 82 0
89 90 -91 0
-89 -90 0
-89 91 0
90 84 -85 0
90 -84 85 0
-90 -84 -85 0
-90 84 85 0
91 92 -93 0
-91 -92 0
-91 93 0
92 86 -87 0
92 -86 87 0
-92 -86 -87 0
-92 86 87 0
93 -566 94 0
-93 566 0
-93 -94 0
94 565 -88 0
94 -565 88 0
-94 -565 -88 0
-94 565 88 0
95 96 -97 0
-95 -96 0
-95 97 0
96 90 -91 0
96 -90 91 0
-96 -90 -91 0
-96 90 91 0
97 98 -99 0
-97 -98 0
-97 99 0
98 92 -93 0
98 -92 93 0
-98 -92 -93 0
-98 92 93 0
99 -567 100 0
-99 567 0
-99 -100 0
100 566 -94 0
100 -566 94 0
-100 -566 -94 0
-100 566 94 0
101 102 -103 0
-101 -102 0
-101 103 0
102 96 -97 0
102 -96 97 0
-102 -96 -97 0
-102 96 97 0
103 104 -105 0
-103 -104 0
-103 105 0
104 98 -99 0
104 -98 99 0
-104 -98 -99 0
-104 98 99 0
105 -568 106 0
-105 568 0
-105 -106 0
106 567 -100 0
106 -567 100 0
-106 -567 -100 0
-106 567 100 0
107 108 -109 0
-107 -108 0
-107 109 0
108 102 -103 0
108 -102 103 0
-108 -102 -103 0
-108 102 103 0
109 110 -111 0
-109 -110 0
-109 111 0
110 104 -105 0
110 -104 105 0
-110 -104 -105 0
-110 104 105 0
111 -569 112 0
-111 569 0
-111 -112 0
112 568 -106 0
112 -568 106 0
-112 -568 -106 0
-112 568 106 0
113 114 -115 0
-113 -114 0
-113 115 0
114 108 -109 0
114 -108 109 0
-114 -108 -109 0
-114 108 109 0
115 116 -117 0
-115 -116 0
-115 117 0
116 110 -111 0
116 -110 111 0
-116 -110 -111 0
-116 110 111 0
117 -570 118 0
-117 570 0
-117 -118 0
118 569 -112 0
118 -569 112 0
-118 -569 -112 0
-118 569 112 0
119 120 -121 0
-119 -120 0
-119 121 0
120 114 -115 0
120 -114 115 0
-120 -114 -115 0
-120 114 115 0
121 122 -123 0
-121 -122 0
-121 123 0
122 116 -117 0
122 -116 117 0
-122 -116 -117 0
-122 116 117 0
123 -571 124 0
-123 571 0
-123 -124 0
124 570 -118 0
124 -570 118 0
-124 -570 -118 0
-124 570 118 0
125 126 -127 0
-125 -126 0
-125 127 0
126 120 -121 0
126 -120 121 0
-126 -120 -121 0
-126 120 121 0
127 128 -129 0
-127 -128 0
-127 129 0
128 122 -123 0
128 -122 123 0
-128 -122 -123 0
-128 122 123 0
129 -572 130 0
-129 572 0
-129 -130 0
130 571 -124 0
130 -571 124 0
-130 -571 -124 0
-130 571 124 0
131 132 -133 0
-131 -132 0
-131 133 0
132 126 -127 0
132 -126 127 0
-132 -126 -127 0
-132 126 127 0
133 134 -135 0
-133 -134 0
-133 135 0
134 128 -129 0
134 -128 129 0
-134 -128 -129 0
-134 128 129 0
135 -573 136 0
-135 573 0
-135 -136 0
136 572 -130 0
136 -572 130 0
-136 -572 -130 0
-136 572 130 0
137 138 -139 0
-137 -138 0
-137 139 0
138 132 -133 0
138 -132 133 0
-138 -132 -133 0
-138 132 133 0
139 140 -141 0
-139 -140 0
-139 141 0
140 134 -135 0
140 -134 135 0
-140 -134 -135 0
-140 134 135 0
141 -574 142 0
-141 574 0
-141 -142 0
142 573 -136 0
142 -573 136 0
-142 -573 -136 0
-142 573 136 0
143 144 -145 0
-143 -144 0
-143 145 0
144 138 -139 0
144 -138 139 0
-144 -138 -139 0
-144 138 139 0
145 146 -147 0
-145 -146 0
-145 147 0
146 140 -141 0
146 -140 141 0
-146 -140 -141 0
-146 140 141 0
147 -575 148 0
-147 575 0
-147 -148 0
148 574 -142 0
148 -574 142 0
-148 -574 -142 0
-148 574 142 0
149 150 -151 0
-149 -150 0
-149 151 0
150 144 -145 0
150 -144 145 0
-150 -144 -145 0
-150 144 145 0
151 152 -153 0
-151 -152 0
-151 153 0
152 146 -147 0
152 -146 147 0
-152 -146 -147 0
-152 146 147 0
153 -576 154 0
-153 576 0
-153 -154 0
154 575 -148 0
154 -575 148 0
-154 -575 -148 0
-154 575 148 0
155 156 -157 0
-155 -156 0
-155 157 0
156 150 -151 0
156 -150 151 0
-156 -150 -151 0
-156 150 151 0
157 158 -159 0
-157 -158 0
-157 159 0
158 152 -153 0
158 -152 153 0
-158 -152 -153 0
-158 152 153 0
159 -577 160 0
-159 577 0
-159 -160 0
160 576 -154 0
160 -576 154 0
-160 -576 -154 0
-160 576 154 0
161 162 -163 0
-161 -162 0
-161 163 0
162 156 -157 0
162 -156 157 0
-162 -156 -157 0
-162 156 157 0
163 164 -165 0
-163 -164 0
-163 165 0
164 158 -159 0
164 -158 159 0
-164 -158 -159 0
-164 158 159 0
165 -578 166 0
-165 578 0
-165 -166 0
166 577 -160 0
166 -577 160 0
-166 -577 -160 0
-166 577 160 0
167 168 -169 0
-167 -168 0
-167 169 0
168 162 -163 0
168 -162 163 0
-168 -162 -163 0
-168 162 163 0
169 170 -171 0
-169 -170 0
-169 171 0
170 164 -165 0
170 -164 165 0
-170 -164 -165 0
-170 164 165 0
171 -579 172 0
-171 579 0
-171 -172 0
172 578 -166 0
172 -578 166 0
-172 -578 -166 0
-172 578 166 0
173 174 -175 0
-173 -174 0
-173 175 0
174 168 -169 0
174 -168 169 0
-174 -168 -169 0
-174 168 169 0
175 176 -177 0
-175 -176 0
-175 177 0
176 170 -171 0
176 -170 171 0
-176 -170 -171 0
-176 170 171 0
177 -580 178 0
-177 580 0
-177 -178 0
178 579 -172 0
178 -579 172 0
-178 -579 -172 0
-178 579 172 0
179 180 -181 0
-179 -180 0
-179 181 0
180 174 -175 0
180 -174 175 0
-180 -174 -175 0
-180 174 175 0
181 182 -183 0
-181 -182 0
-181 183 0
182 176 -177 0
182 -176 177 0
-182 -176 -177 0
-182 176 177 0
183 -581 184 0
-183 581 0
-183 -184 0
184 580 -178 0
184 -580 178 0
-184 -580 -178 0
-184 580 178 0
185 186 -187 0
-185 -186 0
-185 187 0
186 180 -181 0
186 -180 181 0
-186 -180 -181 0
-186 180 181 0
187 188 -189 0
-187 -188 0
-187 189 0
188 182 -183 0
188 -182 183 0
-188 -182 -183 0
-188 182 183 0
189 -582 190 0
-189 582 0
-189 -190 0
190 581 -184 0
190 -581 184 0
-190 -581 -184 0
-190 581 184 0
191 192 -193 0
-191 -192 0
-191 193 0
192 186 -187 0
192 -186 187 0
-192 -186 -187 0
-192 186 187 0
193 194 -195 0
-193 -194 0
-193 195 0
194 188 -189 0
194 -188 189 0
-194 -188 -189 0
-194 188 189 0
195 -583 196 0
-195 583 0
-195 -196 0
196 582 -190 0
196 -582 190 0
-196 -582 -190 0
-196 582 190 0
197 198 -199 0
-197 -198 0
-197 199 0
198 192 -193 0
198 -192 193 0
-198 -192 -193 0
-198 192 193 0
199 200 -201 0
-199 -200 0
-199 201 0
200 194 -195 0
200 -194 195 0
-200 -194 -195 0
-200 194 195 0
201 -584 202 0
-201 584 0
-201 -202 0
202 583 -196 0
202 -583 196 0
-202 -583 -196 0
-202 583 196 0
203 204 -205 0
-203 -204 0
-203 205 0
204 198 -199 0
204 -198 199 0
-204 -198 -199 0
-204 198 199 0
205 206 -207 0
-205 -206 0
-205 207 0
206 200 -201 0
206 -200 201 0
-206 -200 -201 0
-206 200 201 0
207 -585 208 0
-207 585 0
-207 -208 0
208 584 -202 0
208 -584 202 0
-208 -584 -202 0
-208 584 202 0
209 210 -211 0
-209 -210 0
-209 211 0
210 204 -205 0
210 -204 205 0
-210 -204 -205 0
-210 204 205 0
211 212 -213 0
-211 -212 0
-211 213 0
212 206 -207 0
212 -206 207 0
-212 -206 -207 0
-212 206 207 0
213 -586 214 0
-213 586 0
-213 -214 0
214 585 -208 0
214 -585 208 0
-214 -585 -208 0
-214 585 208 0
215 216 -217 0
-215 -216 0
-215 217 0
216 210 -211 0
216 -210 211 0
-216 -210 -211 0
-216 210 211 0
217 218 -219 0
-217 -218 0
-217 219 0
218 212 -213 0
218 -212 213 0
-218 -212 -213 0
-218 212 213 0
219 -587 220 0
-219 587 0
-219 -220 0
220 586 -214 0
220 -586 214 0
-220 -586 -214 0
-220 586 214 0
221 542 -222 0
221 -542 222 0
-221 -542 -222 0
-221 542 222 0
222 216 -217 0
222 -216 217 0
-222 -216 -217 0
-222 216 217 0
223 -540 541 224 -225 0
223 540 541 -224 -225 0
223 540 -541 -224 225 0
223 -540 -541 224 225 0
-223 -540 -224 0
-223 540 224 0
-223 541 225 0
-223 -541 -225 0
224 587 -220 0
224 -587 220 0
-224 -587 -220 0
-224 587 220 0
225 218 -219 0
225 -218 219 0
-225 -218 -219 0
-225 218 219 0
226 547 -227 -432 -434 0
226 -547 227 -432 -434 0
-226 434 0
-226 547 227 0
-226 432 0
-226 -547 -227 0
227 228 -425 0
227 -228 425 0
-227 -228 -425 0
-227 228 425 0
228 229 -418 0
228 -229 418 0
-228 -229 -418 0
-228 229 418 0
229 230 -411 0
229 -230 411 0
-229 -230 -411 0
-229 230 411 0
230 231 -404 0
230 -231 404 0
-230 -231 -404 0
-230 231 404 0
231 232 -397 0
231 -232 397 0
-231 -232 -397 0
-231 232 397 0
232 233 -390 0
232 -233 390 0
-232 -233 -390 0
-232 233 390 0
233 234 -383 0
233 -234 383 0
-233 -234 -383 0
-233 234 383 0
234 235 -376 0
234 -235 376 0
-234 -235 -376 0
-234 235 376 0
235 236 -369 0
235 -236 369 0
-235 -236 -369 0
-235 236 369 0
236 237 -362 0
236 -237 362 0
-236 -237 -362 0
-236 237 362 0
237 238 -355 0
237 -238 355 0
-237 -238 -355 0
-237 238 355 0
238 239 -348 0
238 -239 348 0
-238 -239 -348 0
-238 239 348 0
239 240 -341 0
239 -240 341 0
-239 -240 -341 0
-239 240 341 0
240 241 -334 0
240 -241 334 0
-240 -241 -334 0
-240 241 334 0
241 242 -327 0
241 -242 327 0
-241 -242 -327 0
-241 242 327 0
242 243 -320 0
242 -243 320 0
-242 -243 -320 0
-242 243 320 0
243 244 -313 0
243 -244 313 0
-243 -244 -313 0
-243 244 313 0
244 245 -306 0
244 -245 306 0
-244 -245 -306 0
-244 245 306 0
245 246 -299 0
245 -246 299 0
-245 -246 -299 0
-245 246 299 0
246 247 -292 0
246 -247 292 0
-246 -247 -292 0
-246 247 292 0
247 248 -285 0
247 -248 285 0
-247 -248 -285 0
-247 248 285 0
248 249 -278 0
248 -249 278 0
-248 -249 -278 0
-248 249 278 0
249 250 -271 0
249 -250 271 0
-249 -250 -271 0
-249 250 271 0
250 251 0
-250 -251 0
251 -252 0
-251 252 0
252 253 -266 0
-252 -253 0
-252 266 0
253 254 0
-253 -254 0
254 -255 0
-254 255 0
255 256 -263 0
-255 -256 0
-255 263 0
256 257 0
-256 -257 0
257 -258 0
-257 258 0
258 259 -262 0
-258 -259 0
-258 262 0
259 260 0
-259 -260 0
260 -261 0
-260 261 0
261 44 -59 0
-261 -44 0
-261 59 0
262 43 -65 0
-262 -43 0
-262 65 0
263 264 -265 0
-263 -264 0
-263 265 0
264 259 -262 0
264 -259 262 0
-264 -259 -262 0
-264 259 262 0
265 42 -71 0
-265 -42 0
-265 71 0
266 267 -268 0
-266 -267 0
-266 268 0
267 256 -263 0
267 -256 263 0
-267 -256 -263 0
-267 256 263 0
268 269 -270 0
-268 -269 0
-268 270 0
269 264 -265 0
269 -264 265 0
-269 -264 -265 0
-269 264 265 0
270 41 -77 0
-270 -41 0
-270 77 0
271 272 -273 0
-271 -272 0
-271 273 0
272 253 -266 0
272 -253 266 0
-272 -253 -266 0
-272 253 266 0
273 274 -275 0
-273 -274 0
-273 275 0
274 267 -268 0
274 -267 268 0
-274 -267 -268 0
-274 267 268 0
275 276 -277 0
-275 -276 0
-275 277 0
276 269 -270 0
276 -269 270 0
-276 -269 -270 0
-276 269 270 0
277 40 -83 0
-277 -40 0
-277 83 0
278 279 -280 0
-278 -279 0
-278 280 0
279 272 -273 0
279 -272 273 0
-279 -272 -273 0
-279 272 273 0
280 281 -282 0
-280 -281 0
-280 282 0
281 274 -275 0
281 -274 275 0
-281 -274 -275 0
-281 274 275 0
282 283 -284 0
-282 -283 0
-282 284 0
283 276 -277 0
283 -276 277 0
-283 -276 -277 0
-283 276 277 0
284 39 -89 0
-284 -39 0
-284 89 0
285 286 -287 0
-285 -286 0
-285 287 0
286 279 -280 0
286 -279 280 0
-286 -279 -280 0
-286 279 280 0
287 288 -289 0
-287 -288 0
-287 289 0
288 281 -282 0
288 -281 282 0
-288 -281 -282 0
-288 281 282 0
289 290 -291 0
-289 -290 0
-289 291 0
290 283 -284 0
290 -283 284 0
-290 -283 -284 0
-290 283 284 0
291 38 -95 0
-291 -38 0
-291 95 0
292 293 -294 0
-292 -293 0
-292 294 0
293 286 -287 0
293 -286 287 0
-293 -286 -287 0
-293 286 287 0
294 295 -296 0
-294 -295 0
-294 296 0
295 288 -289 0
295 -288 289 0
-295 -288 -289 0
-295 288 289 0
296 297 -298 0
-296 -297 0
-296 298 0
297 290 -291 0
297 -290 291 0
-297 -290 -291 0
-297 290 291 0
298 37 -101 0
-298 -37 0
-298 101 0
299 300 -301 0
-299 -300 0
-299 301 0
300 293 -294 0
300 -293 294 0
-300 -293 -294 0
-300 293 294 0
301 302 -303 0
-301 -302 0
-301 303 0
302 295 -296 0
302 -295 296 0
-302 -295 -296 0
-302 295 296 0
303 304 -305 0
-303 -304 0
-303 305 0
304 297 -298 0
304 -297 298 0
-304 -297 -298 0
-304 297 298 0
305 36 -107 0
-305 -36 0
-305 107 0
306 307 -308 0
-306 -307 0
-306 308 0
307 300 -301 0
307 -300 301 0
-307 -300 -301 0
-307 300 301 0
308 309 -310 0
-308 -309 0
-308 310 0
309 302 -303 0
309 -302 303 0
-309 -302 -303 0
-309 302 303 0
310 311 -312 0
-310 -311 0
-310 312 0
311 304 -305 0
311 -304 305 0
-311 -304 -305 0
-311 304 305 0
312 35 -113 0
-312 -35 0
-312 113 0
313 314 -315 0
-313 -314 0
-313 315 0
314 307 -308 0
314 -307 308 0
-314 -307 -308 0
-314 307 308 0
315 316 -317 0
-315 -316 0
-315 317 0
316 309 -310 0
316 -309 310 0
-316 -309 -310 0
-316 309 310 0
317 318 -319 0
-317 -318 0
-317 319 0
318 311 -312 0
318 -311 312 0
-318 -311 -312 0
-318 311 312 0
319 34 -119 0
-319 -34 0
-319 119 0
320 321 -322 0
-320 -321 0
-320 322 0
321 314 -315 0
321 -314 315 0
-321 -314 -315 0
-321 314 315 0
322 323 -324 0
-322 -323 0
-322 324 0
323 316 -317 0
323 -316 317 0
-323 -316 -317 0
-323 316 317 0
324 325 -326 0
-324 -325 0
-324 326 0
325 318 -319 0
325 -318 319 0
-325 -318 -319 0
-325 318 319 0
326 33 -125 0
-326 -33 0
-326 125 0
327 328 -329 0
-327 -328 0
-327 329 0
328 321 -322 0
328 -321 322 0
-328 -321 -322 0
-328 321 322 0
329 330 -331 0
-329 -330 0
-329 331 0
330 323 -324 0
330 -323 324 0
-330 -323 -324 0
-330 323 324 0
331 332 -333 0
-331 -332 0
-331 333 0
332 325 -326 0
332 -325 326 0
-332 -325 -326 0
-332 325 326 0
333 32 -131 0
-333 -32 0
-333 131 0
334 335 -336 0
-334 -335 0
-334 336 0
335 328 -329 0
335 -328 329 0
-335 -328 -329 0
-335 328 329 0
336 337 -338 0
-336 -337 0
-336 338 0
337 330 -331 0
337 -330 331 0
-337 -330 -331 0
-337 330 331 0
338 339 -340 0
-338 -339 0
-338 340 0
339 332 -333 0
339 -332 333 0
-339 -332 -333 0
-339 332 333 0
340 31 -137 0
-340 -31 0
-340 137 0
341 342 -343 0
-341 -342 0
-341 343 0
342 335 -336 0
342 -335 336 0
-342 -335 -336 0
-342 335 336 0
343 344 -345 0
-343 -344 0
-343 345 0
344 337 -338 0
344 -337 338 0
-344 -337 -338 0
-344 337 338 0
345 346 -347 0
-345 -346 0
-345 347 0
346 339 -340 0
346 -339 340 0
-346 -339 -340 0
-346 339 340 0
347 30 -143 0
-347 -30 0
-347 143 0
348 349 -350 0
-348 -349 0
-348 350 0
349 342 -343 0
349 -342 343 0
-349 -342 -343 0
-349 342 343 0
350 351 -352 0
-350 -351 0
-350 352 0
351 344 -345 0
351 -344 345 0
-351 -344 -345 0
-351 344 345 0
352 353 -354 0
-352 -353 0
-352 354 0
353 346 -347 0
353 -346 347 0
-353 -346 -347 0
-353 346 347 0
354 29 -149 0
-354 -29 0
-354 149 0
355 356 -357 0
-355 -356 0
-355 357 0
356 349 -350 0
356 -349 350 0
-356 -349 -350 0
-356 349 350 0
357 358 -359 0
-357 -358 0
-357 359 0
358 351 -352 0
358 -351 352 0
-358 -351 -352 0
-358 351 352 0
359 360 -361 0
-359 -360 0
-359 361 0
360 353 -354 0
360 -353 354 0
-360 -353 -354 0
-360 353 354 0
361 28 -155 0
-361 -28 0
-361 155 0
362 363 -364 0
-362 -363 0
-362 364 0
363 356 -357 0
363 -356 357 0
-363 -356 -357 0
-363 356 357 0
364 365 -366 0
-364 -365 0
-364 366 0
365 358 -359 0
365 -358 359 0
-365 -358 -359 0
-365 358 359 0
366 367 -368 0
-366 -367 0
-366 368 0
367 360 -361 0
367 -360 361 0
-367 -360 -361 0
-367 360 361 0
368 27 -161 0
-368 -27 0
-368 161 0
369 370 -371 0
-369 -370 0
-369 371 0
370 363 -364 0
370 -363 364 0
-370 -363 -364 0
-370 363 364 0
371 372 -373 0
-371 -372 0
-371 373 0
372 365 -366 0
372 -365 366 0
-372 -365 -366 0
-372 365 366 0
373 374 -375 0
-373 -374 0
-373 375 0
374 367 -368 0
374 -367 368 0
-374 -367 -368 0
-374 367 368 0
375 26 -167 0
-375 -26 0
-375 167 0
376 377 -378 0
-376 -377 0
-376 378 0
377 370 -371 0
377 -370 371 0
-377 -370 -371 0
-377 370 371 0
378 379 -380 0
-378 -379 0
-378 380 0
379 372 -373 0
379 -372 373 0
-379 -372 -373 0
-379 372 373 0
380 381 -382 0
-380 -381 0
-380 382 0
381 374 -375 0
381 -374 375 0
-381 -374 -375 0
-381 374 375 0
382 25 -173 0
-382 -25 0
-382 173 0
383 384 -385 0
-383 -384 0
-383 385 0
384 377 -378 0
384 -377 378 0
-384 -377 -378 0
-384 377 378 0
385 386 -387 0
-385 -386 0
-385 387 0
386 379 -380 0
386 -379 380 0
-386 -379 -380 0
-386 379 380 0
387 388 -389 0
-387 -388 0
-387 389 0
388 381 -382 0
388 -381 382 0
-388 -381 -382 0
-388 381 382 0
389 24 -179 0
-389 -24 0
-389 179 0
390 391 -392 0
-390 -391 0
-390 392 0
391 384 -385 0
391 -384 385 0
-391 -384 -385 0
-391 384 385 0
392 393 -394 0
-392 -393 0
-392 394 0
393 386 -387 0
393 -386 387 0
-393 -386 -387 0
-393 386 387 0
394 395 -396 0
-394 -395 0
-394 396 0
395 388 -389 0
395 -388 389 0
-395 -388 -389 0
-395 388 389 0
396 23 -185 0
-396 -23 0
-396 185 0
397 398 -399 0
-397 -398 0
-397 399 0
398 391 -392 0
398 -391 392 0
-398 -391 -392 0
-398 391 392 0
399 400 -401 0
-399 -400 0
-399 401 0
400 393 -394 0
400 -393 394 0
-400 -393 -394 0
-400 393 394 0
401 402 -403 0
-401 -402 0
-401 403 0
402 395 -396 0
402 -395 396 0
-402 -395 -396 0
-402 395 396 0
403 22 -191 0
-403 -22 0
-403 191 0
404 405 -406 0
-404 -405 0
-404 406 0
405 398 -399 0
405 -398 399 0
-405 -398 -399 0
-405 398 399 0
406 407 -408 0
-406 -407 0
-406 408 0
407 400 -401 0
407 -400 401 0
-407 -400 -401 0
-407 400 401 0
408 409 -410 0
-408 -409 0
-408 410 0
409 402 -403 0
409 -402 403 0
-409 -402 -403 0
-409 402 403 0
410 21 -197 0
-410 -21 0
-410 197 0
411 412 -413 0
-411 -412 0
-411 413 0
412 405 -406 0
412 -405 406 0
-412 -405 -406 0
-412 405 406 0
413 414 -415 0
-413 -414 0
-413 415 0
414 407 -408 0
414 -407 408 0
-414 -407 -408 0
-414 407 408 0
415 416 -417 0
-415 -416 0
-415 417 0
416 409 -410 0
416 -409 410 0
-416 -409 -410 0
-416 409 410 0
417 20 -203 0
-417 -20 0
-417 203 0
418 419 -420 0
-418 -419 0
-418 420 0
419 412 -413 0
419 -412 413 0
-419 -412 -413 0
-419 412 413 0
420 421 -422 0
-420 -421 0
-420 422 0
421 414 -415 0
421 -414 415 0
-421 -414 -415 0
-421 414 415 0
422 423 -424 0
-422 -423 0
-422 424 0
423 416 -417 0
423 -416 417 0
-423 -416 -417 0
-423 416 417 0
424 19 -209 0
-424 -19 0
-424 209 0
425 426 -427 0
-425 -426 0
-425 427 0
426 419 -420 0
426 -419 420 0
-426 -419 -420 0
-426 419 420 0
427 428 -429 0
-427 -428 0
-427 429 0
428 421 -422 0
428 -421 422 0
-428 -421 -422 0
-428 421 422 0
429 430 -431 0
-429 -430 0
-429 431 0
430 423 -424 0
430 -423 424 0
-430 -423 -424 0
-430 423 424 0
431 18 -215 0
-431 -18 0
-431 215 0
432 546 -433 0
432 -546 433 0
-432 -546 -433 0
-432 546 433 0
433 426 -427 0
433 -426 427 0
-433 -426 -427 0
-433 426 427 0
434 -544 545 435 -436 0
434 544 545 -435 -436 0
434 544 -545 -435 436 0
434 -544 -545 435 436 0
-434 -544 -435 0
-434 544 435 0
-434 545 436 0
-434 -545 -436 0
435 430 -431 0
435 -430 431 0
-435 -430 -431 0
-435 430 431 0
436 428 -429 0
436 -428 429 0
-436 -428 -429 0
-436 428 429 0
437 548 549 550 551 0
-437 -551 0
-437 -550 0
-437 -548 0
-437 -549 0
438 552 553 554 555 0
-438 -555 0
-438 -554 0
-438 -552 0
-438 -553 0
439 540 -541 542 543 0
-439 541 0
-439 -543 0
-439 -540 0
-439 -542 0
440 544 545 546 547 0
-440 -547 0
-440 -546 0
-440 -544 0
-440 -545 0
441 -588 589 442 -443 0
441 588 589 -442 -443 0
441 588 -589 -442 443 0
441 -588 -589 442 443 0
-441 -588 -442 0
-441 588 442 0
-441 589 443 0
-441 -589 -443 0
442 623 628 0
-442 -623 0
-442 -628 0
443 630 632 0
-443 -630 0
-443 -632 0
444 557 590 -445 -446 0
444 -557 -590 445 -446 0
-444 -557 -445 0
-444 590 445 0
-444 446 0
-444 557 -590 0
445 644 647 0
-445 -644 0
-445 -647 0
446 -556 -588 0
446 556 588 589 652 0
446 -556 -589 652 0
-446 556 -589 0
-446 -556 588 589 0
-446 556 -588 0
-446 588 -652 0
447 654 448 -449 0
447 -590 448 -449 0
-447 449 0
-447 -448 0
-447 590 -654 0
448 589 -653 0
-448 -589 0
-448 653 0
449 -620 621 -685 686 0
449 620 -621 685 -686 0
449 620 621 685 686 0
449 -620 -621 -685 -686 0
-449 -620 685 0
-449 620 -685 0
-449 621 -686 0
-449 -621 686 0
450 623 688 -451 -452 0
450 -623 -688 -451 -452 0
-450 452 0
-450 -623 688 0
-450 451 0
-450 623 -688 0
451 -622 -687 0
451 622 687 0
-451 622 -687 0
-451 -622 687 0
452 -624 625 -689 690 0
452 624 -625 689 -690 0
452 624 625 689 690 0
452 -624 -625 -689 -690 0
-452 -624 689 0
-452 624 -689 0
-452 625 -690 0
-452 -625 690 0
453 -454 -455 -456 -459 0
-453 459 0
-453 454 0
-453 456 0
-453 455 0
454 -647 648 -712 713 0
454 647 -648 712 -713 0
454 647 648 712 713 0
454 -647 -648 -712 -713 0
-454 -647 712 0
-454 647 -712 0
-454 648 -713 0
-454 -648 713 0
455 -649 650 -714 715 0
455 649 -650 714 -715 0
455 649 650 714 715 0
455 -649 -650 -714 -715 0
-455 -649 714 0
-455 649 -714 0
-455 650 -715 0
-455 -650 715 0
456 646 711 -457 -458 0
456 -646 -711 -457 -458 0
-456 458 0
-456 -646 711 0
-456 457 0
-456 646 -711 0
457 -645 -710 0
457 645 710 0
-457 645 -710 0
-457 -645 710 0
458 -643 644 -708 709 0
458 643 -644 708 -709 0
458 643 644 708 709 0
458 -643 -644 -708 -709 0
-458 -643 708 0
-458 643 -708 0
-458 644 -709 0
-458 -644 709 0
459 -460 470 -491 -512 0
-459 512 0
-459 460 0
-459 491 0
-459 -470 0
460 -461 -462 -463 -465 0
-460 465 0
-460 461 0
-460 463 0
-460 462 0
461 593 594 595 596 0
-461 -596 0
-461 -595 0
-461 -593 0
-461 -594 0
462 597 598 599 600 0
-462 -600 0
-462 -599 0
-462 -597 0
-462 -598 0
463 591 592 619 -464 0
-463 464 0
-463 -619 0
-463 -591 0
-463 -592 0
464 617 618 0
-464 -617 0
-464 -618 0
465 -466 -467 -468 -469 0
-465 469 0
-465 466 0
-465 468 0
-465 467 0
466 601 602 603 604 0
-466 -604 0
-466 -603 0
-466 -601 0
-466 -602 0
467 605 606 607 608 0
-467 -608 0
-467 -607 0
-467 -605 0
-467 -606 0
468 609 610 611 612 0
-468 -612 0
-468 -611 0
-468 -609 0
-468 -610 0
469 613 614 615 616 0
-469 -616 0
-469 -615 0
-469 -613 0
-469 -614 0
470 -471 -476 -481 -486 0
-470 486 0
-470 471 0
-470 481 0
-470 476 0
471 -472 -473 -474 -475 0
-471 475 0
-471 472 0
-471 474 0
-471 473 0
472 620 621 684 685 0
-472 -685 0
-472 -684 0
-472 -620 0
-472 -621 0
473 622 623 686 687 0
-473 -687 0
-473 -686 0
-473 -622 0
-473 -623 0
474 624 625 688 689 0
-474 -689 0
-474 -688 0
-474 -624 0
-474 -625 0
475 626 627 690 691 0
-475 -691 0
-475 -690 0
-475 -626 0
-475 -627 0
476 -477 -478 -479 -480 0
-476 480 0
-476 477 0
-476 479 0
-476 478 0
477 628 629 692 693 0
-477 -693 0
-477 -692 0
-477 -628 0
-477 -629 0
478 630 631 694 695 0
-478 -695 0
-478 -694 0
-478 -630 0
-478 -631 0
479 632 633 696 697 0
-479 -697 0
-479 -696 0
-479 -632 0
-479 -633 0
480 634 635 698 699 0
-480 -699 0
-480 -698 0
-480 -634 0
-480 -635 0
481 -482 -483 -484 -485 0
-481 485 0
-481 482 0
-481 484 0
-481 483 0
482 636 637 700 701 0
-482 -701 0
-482 -700 0
-482 -636 0
-482 -637 0
483 638 639 702 703 0
-483 -703 0
-483 -702 0
-483 -638 0
-483 -639 0
484 640 641 704 705 0
-484 -705 0
-484 -704 0
-484 -640 0
-484 -641 0
485 642 643 706 707 0
-485 -707 0
-485 -706 0
-485 -642 0
-485 -643 0
486 -487 -488 -489 -490 0
-486 490 0
-486 487 0
-486 489 0
-486 488 0
487 644 645 708 709 0
-487 -709 0
-487 -708 0
-487 -644 0
-487 -645 0
488 646 647 710 711 0
-488 -711 0
-488 -710 0
-488 -646 0
-488 -647 0
489 648 649 712 713 0
-489 -713 0
-489 -712 0
-489 -648 0
-489 -649 0
490 650 651 714 715 0
-490 -715 0
-490 -714 0
-490 -650 0
-490 -651 0
491 -492 -497 -502 -507 0
-491 507 0
-491 492 0
-491 502 0
-491 497 0
492 -493 -494 -495 -496 0
-492 496 0
-492 493 0
-492 495 0
-492 494 0
493 620 621 622 -623 0
-493 623 0
-493 -622 0
-493 -620 0
-493 -621 0
494 624 -625 626 -627 0
-494 625 0
-494 -626 0
-494 -624 0
-494 627 0
495 -628 629 630 631 0
-495 -631 0
-495 -630 0
-495 628 0
-495 -629 0
496 632 633 634 635 0
-496 -635 0
-496 -634 0
-496 -632 0
-496 -633 0
497 -498 -499 -500 -501 0
-497 501 0
-497 498 0
-497 500 0
-497 499 0
498 636 637 638 639 0
-498 -639 0
-498 -638 0
-498 -636 0
-498 -637 0
499 640 641 642 643 0
-499 -643 0
-499 -642 0
-499 -640 0
-499 -641 0
500 644 645 646 647 0
-500 -647 0
-500 -646 0
-500 -644 0
-500 -645 0
501 648 649 650 651 0
-501 -651 0
-501 -650 0
-501 -648 0
-501 -649 0
502 -503 -504 -505 -506 0
-502 506 0
-502 503 0
-502 505 0
-502 504 0
503 684 685 686 687 0
-503 -687 0
-503 -686 0
-503 -684 0
-503 -685 0
504 -688 689 -690 691 0
-504 690 0
-504 -691 0
-504 688 0
-504 -689 0
505 -692 -693 694 695 0
-505 693 0
-505 -695 0
-505 692 0
-505 -694 0
506 696 697 698 699 0
-506 -699 0
-506 -698 0
-506 -696 0
-506 -697 0
507 -508 -509 -510 -511 0
-507 511 0
-507 508 0
-507 510 0
-507 509 0
508 700 701 702 703 0
-508 -703 0
-508 -702 0
-508 -700 0
-508 -701 0
509 704 705 706 707 0
-509 -707 0
-509 -706 0
-509 -704 0
-509 -705 0
510 708 709 710 711 0
-510 -711 0
-510 -710 0
-510 -708 0
-510 -709 0
511 712 713 714 715 0
-511 -715 0
-511 -714 0
-511 -712 0
-511 -713 0
512 -513 -523 -528 -533 0
-512 533 0
-512 513 0
-512 528 0
-512 523 0
513 -514 -515 -516 -518 0
-513 518 0
-513 514 0
-513 516 0
-513 515 0
514 562 563 564 565 0
-514 -565 0
-514 -564 0
-514 -562 0
-514 -563 0
515 566 567 568 569 0
-515 -569 0
-515 -568 0
-515 -566 0
-515 -567 0
516 586 587 -517 0
-516 517 0
-516 -587 0
-516 -586 0
517 558 559 560 561 0
-517 -561 0
-517 -560 0
-517 -558 0
-517 -559 0
518 -519 -520 -521 -522 0
-518 522 0
-518 519 0
-518 521 0
-518 520 0
519 570 571 572 573 0
-519 -573 0
-519 -572 0
-519 -570 0
-519 -571 0
520 574 575 576 577 0
-520 -577 0
-520 -576 0
-520 -574 0
-520 -575 0
521 578 579 580 581 0
-521 -581 0
-521 -580 0
-521 -578 0
-521 -579 0
522 582 583 584 585 0
-522 -585 0
-522 -584 0
-522 -582 0
-522 -583 0
523 -524 -525 -526 -527 0
-523 527 0
-523 524 0
-523 526 0
-523 525 0
524 681 682 0
-524 -681 0
-524 -682 0
525 655 656 683 0
-525 -655 0
-525 -683 0
-525 -656 0
526 657 658 659 660 0
-526 -660 0
-526 -659 0
-526 -657 0
-526 -658 0
527 661 662 663 664 0
-527 -664 0
-527 -663 0
-527 -661 0
-527 -662 0
528 -529 -530 -531 -532 0
-528 532 0
-528 529 0
-528 531 0
-528 530 0
529 665 666 667 668 0
-529 -668 0
-529 -667 0
-529 -665 0
-529 -666 0
530 669 670 671 672 0
-530 -672 0
-530 -671 0
-530 -669 0
-530 -670 0
531 673 674 675 676 0
-531 -676 0
-531 -675 0
-531 -673 0
-531 -674 0
532 677 678 679 680 0
-532 -680 0
-532 -679 0
-532 -677 0
-532 -678 0
533 -684 703 534 -537 0
533 684 703 -534 -537 0
533 684 -703 -534 537 0
533 -684 -703 534 537 0
-533 -684 -534 0
-533 684 534 0
-533 703 537 0
-533 -703 -537 0
534 651 -535 0
534 -651 535 0
-534 -651 -535 0
-534 651 535 0
535 646 -536 0
535 -646 536 0
-535 -646 -536 0
-535 646 536 0
536 -642 -654 0
536 642 654 0
-536 642 -654 0
-536 -642 654 0
537 638 -538 0
537 -638 538 0
-537 -638 -538 0
-537 638 538 0
538 653 -539 0
538 -653 539 0
-538 -653 -539 0
-538 653 539 0
539 -627 -652 0
539 627 652 0
-539 627 -652 0
-539 -627 652 0
716 0
2 0

